Problem:    
Rows:       237
Columns:    89 (72 integer, 72 binary)
Non-zeros:  741
Status:     INTEGER OPTIMAL
Objective:  value = 46.044528 (MINimum)

   No.   Row name        Activity     Lower bound   Upper bound
------ ------------    ------------- ------------- -------------
     1 r.5                         1             1             = 
     2 r.6                   1046.04             0               
     3 r.7                  -963.533      -999.455               
     4 r.8                   46.0445             0               
     5 r.9                  -997.871      -998.065               
     6 r.10                  46.0445             0               
     7 r.11                  46.0445       -990.14               
     8 r.12                  1046.04             0               
     9 r.13                 -953.955      -992.283               
    10 r.14                  1046.04             0               
    11 r.15                 -953.955      -990.423               
    12 r.16                  46.0445             0               
    13 r.17                  46.0445      -992.156               
    14 r.18                  46.0445             0               
    15 r.19                  38.3278      -982.783               
    16 r.20                  1046.04             0               
    17 r.21                 -961.672      -983.624               
    18 r.22                  1046.04             0               
    19 r.23                 -990.471      -990.665               
    20 r.24                  46.0445             0               
    21 r.25                  36.4671      -991.285               
    22 r.26                  46.0445             0               
    23 r.27                  21.9518      -980.888               
    24 r.28                  1046.04             0               
    25 r.29                 -978.048      -983.925               
    26 r.30                  46.0445             0               
    27 r.31                  5.87629      -994.146               
    28 r.32                  1046.04             0               
    29 r.33                 -994.124      -994.318               
    30 r.34                  1046.04             0               
    31 r.35                 -999.805      -999.805               
    32 r.36                  46.0445             0               
    33 r.37                 0.194526      -998.099               
    34 r.38                        1             1             = 
    35 r.39                        1             1             = 
    36 r.40                        1             1             = 
    37 r.41                        1             1             = 
    38 r.42                        1             1             = 
    39 r.43                        1             1             = 
    40 r.44                        1             1             = 
    41 r.45                        1             1             = 
    42 r.46                     1001             2               
    43 r.47                    -1001         -1001               
    44 r.48                  2009.58       -990.14               
    45 r.49                     1001             2               
    46 r.50                    -1001         -1001               
    47 r.51                  3043.92      -992.283               
    48 r.52                        2             2               
    49 r.53                       -2         -1001               
    50 r.54                 -990.423      -990.423               
    51 r.55                     1000             2               
    52 r.56                    -1000         -1001               
    53 r.57                  3043.92      -992.156               
    54 r.58                     1001             2               
    55 r.59                    -1001         -1001               
    56 r.60                  2001.86      -982.783               
    57 r.61                     1001             2               
    58 r.62                    -1001         -1001               
    59 r.63                   3036.2      -983.624               
    60 r.64                        2             2               
    61 r.65                       -2         -1001               
    62 r.66                 -26.9379      -990.665               
    63 r.67                     1000             2               
    64 r.68                    -1000         -1001               
    65 r.69                  3034.34      -991.285               
    66 r.70                     1001             2               
    67 r.71                    -1001         -1001               
    68 r.72                  1985.48      -980.888               
    69 r.73                     1001             2               
    70 r.74                    -1001         -1001               
    71 r.75                  3019.82      -983.925               
    72 r.76                     1001             2               
    73 r.77                    -1001         -1001               
    74 r.78                  1969.41      -994.146               
    75 r.79                     1001             2               
    76 r.80                    -1001         -1001               
    77 r.81                  3003.75      -994.318               
    78 r.82                 -963.727      -999.455               
    79 r.83                 -998.065      -998.065               
    80 r.84                 -963.727      -999.455               
    81 r.85                 -998.065      -998.065               
    82 r.86                     1001             2               
    83 r.87                    -1001         -1001               
    84 r.88                  1990.42      0.544868               
    85 r.89                     1001             2               
    86 r.90                    -1001         -1001               
    87 r.91                  956.085       1.93481               
    88 r.92                     1001             2               
    89 r.93                    -1001         -1001               
    90 r.94                     2000      -990.423               
    91 r.95                     1001             2               
    92 r.96                    -1001         -1001               
    93 r.97                     2000      -992.156               
    94 r.98                  7.71677       -990.14               
    95 r.99                 -992.283      -992.283               
    96 r.100                 7.71677       -990.14               
    97 r.101                -992.283      -992.283               
    98 r.102                    1001             2               
    99 r.103                   -1001         -1001               
   100 r.104                 1963.48      -990.665               
   101 r.105                    1001             2               
   102 r.106                   -1001         -1001               
   103 r.107                 1990.42      -991.285               
   104 r.108                       2             2               
   105 r.109                      -2         -1001               
   106 r.110                 990.423      0.544868               
   107 r.111                    1000             2               
   108 r.112                   -1000         -1001               
   109 r.113                 956.085       1.93481               
   110 r.114                    1001             2               
   111 r.115                   -1001         -1001               
   112 r.116                    2000       9.85984               
   113 r.117                    1001             2               
   114 r.118                   -1001         -1001               
   115 r.119                    2000       7.71677               
   116 r.120                    1001             2               
   117 r.121                   -1001         -1001               
   118 r.122                 1992.28      -982.783               
   119 r.123                    1001             2               
   120 r.124                   -1001         -1001               
   121 r.125                 1992.28      -983.624               
   122 r.126                -963.485      -990.423               
   123 r.127                 36.5153      -992.156               
   124 r.128                -990.423      -990.423               
   125 r.129                 9.57746      -992.156               
   126 r.130                    1001             2               
   127 r.131                   -1001         -1001               
   128 r.132                 1975.91      -980.888               
   129 r.133                    1001             2               
   130 r.134                   -1001         -1001               
   131 r.135                 1975.91      -983.925               
   132 r.136                    1001             2               
   133 r.137                   -1001         -1001               
   134 r.138                 1959.83      -994.146               
   135 r.139                    1001             2               
   136 r.140                   -1001         -1001               
   137 r.141                 1959.83      -994.318               
   138 r.142                    1001             2               
   139 r.143                   -1001         -1001               
   140 r.144                 1998.14      0.544868               
   141 r.145                    1001             2               
   142 r.146                   -1001         -1001               
   143 r.147                 963.802       1.93481               
   144 r.148                    1001             2               
   145 r.149                   -1001         -1001               
   146 r.150                 2007.72       9.57746               
   147 r.151                    1001             2               
   148 r.152                   -1001         -1001               
   149 r.153                 2007.72       7.84366               
   150 r.154                    1001             2               
   151 r.155                   -1001         -1001               
   152 r.156                  1971.2      -990.665               
   153 r.157                    1001             2               
   154 r.158                   -1001         -1001               
   155 r.159                 1998.14      -991.285               
   156 r.160                  16.376      -982.783               
   157 r.161                -983.624      -983.624               
   158 r.162                  16.376      -982.783               
   159 r.163                -983.624      -983.624               
   160 r.164                       2             2               
   161 r.165                      -2         -1001               
   162 r.166                 26.9379      0.544868               
   163 r.167                    1000             2               
   164 r.168                   -1000         -1001               
   165 r.169                 965.662       1.93481               
   166 r.170                    1001             2               
   167 r.171                   -1001         -1001               
   168 r.172                 2036.52       9.85984               
   169 r.173                    1001             2               
   170 r.174                   -1001         -1001               
   171 r.175                 2009.58       7.71677               
   172 r.176                    1001             2               
   173 r.177                   -1001         -1001               
   174 r.178                  2028.8       17.2168               
   175 r.179                    1001             2               
   176 r.180                   -1001         -1001               
   177 r.181                 2001.86        16.376               
   178 r.182                    1001             2               
   179 r.183                   -1001         -1001               
   180 r.184                 2012.42      -980.888               
   181 r.185                    1001             2               
   182 r.186                   -1001         -1001               
   183 r.187                 1985.48      -983.925               
   184 r.188                    1001             2               
   185 r.189                   -1001         -1001               
   186 r.190                 1996.35      -994.146               
   187 r.191                    1001             2               
   188 r.192                   -1001         -1001               
   189 r.193                 1969.41      -994.318               
   190 r.194                -990.665      -990.665               
   191 r.195                 36.2725      -991.285               
   192 r.196                -990.665      -990.665               
   193 r.197                 36.2725      -991.285               
   194 r.198                    1001             2               
   195 r.199                   -1001         -1001               
   196 r.200                 2014.52      0.544868               
   197 r.201                    1001             2               
   198 r.202                   -1001         -1001               
   199 r.203                 980.178       1.93481               
   200 r.204                    1001             2               
   201 r.205                   -1001         -1001               
   202 r.206                 2024.09       9.57746               
   203 r.207                    1001             2               
   204 r.208                   -1001         -1001               
   205 r.209                 2024.09       7.84366               
   206 r.210                    1001             2               
   207 r.211                   -1001         -1001               
   208 r.212                 1987.58       9.33468               
   209 r.213                    1001             2               
   210 r.214                   -1001         -1001               
   211 r.215                 2014.52       8.71473               
   212 r.216                 16.0755      -980.888               
   213 r.217                -983.925      -983.925               
   214 r.218                 16.0755      -980.888               
   215 r.219                -983.925      -983.925               
   216 r.220                    1001             2               
   217 r.221                   -1001         -1001               
   218 r.222                 2030.59      0.544868               
   219 r.223                    1001             2               
   220 r.224                   -1001         -1001               
   221 r.225                 996.253       1.93481               
   222 r.226                    1001             2               
   223 r.227                   -1001         -1001               
   224 r.228                 2040.17       9.57746               
   225 r.229                    1001             2               
   226 r.230                   -1001         -1001               
   227 r.231                 2040.17       7.84366               
   228 r.232                    1001             2               
   229 r.233                   -1001         -1001               
   230 r.234                 2003.65       9.33468               
   231 r.235                    1001             2               
   232 r.236                   -1001         -1001               
   233 r.237                 2030.59       8.71473               
   234 r.238                 5.68176      -994.146               
   235 r.239                -994.318      -994.318               
   236 r.240                 5.68176      -994.146               
   237 r.241                -994.318      -994.318               

   No. Column name       Activity     Lower bound   Upper bound
------ ------------    ------------- ------------- -------------
     1 tt                    46.0445             0               
     2 s_1_8        *              1             0             1 
     3 s_1_1        *              1             0             1 
     4 t_1_1                 9.57746             0               
     5 s_2_1        *              0             0             1 
     6 t_2_1                 1043.92             0               
     7 s_1_2        *              0             0             1 
     8 t_1_2                       0             0               
     9 s_2_2        *              1             0             1 
    10 t_2_2                       0             0               
    11 s_1_3        *              1             0             1 
    12 t_1_3                       0             0               
    13 s_2_3        *              0             0             1 
    14 t_2_3                       0             0               
    15 s_1_4        *              0             0             1 
    16 t_1_4                 7.71677             0               
    17 s_2_4        *              1             0             1 
    18 t_2_4                 7.71677             0               
    19 s_1_5        *              1             0             1 
    20 t_1_5                 36.5153             0               
    21 s_2_5        *              0             0             1 
    22 t_2_5                 9.57746             0               
    23 s_1_6        *              0             0             1 
    24 t_1_6                 24.0928             0               
    25 s_2_6        *              1             0             1 
    26 t_2_6                 24.0928             0               
    27 s_1_7        *              0             0             1 
    28 t_1_7                 40.1682             0               
    29 s_2_7        *              1             0             1 
    30 t_2_7                 40.1682             0               
    31 t_1_8                   45.85             0               
    32 s_2_8        *              0             0             1 
    33 t_2_8                   45.85             0               
    34 r_1_1_2      *              1             0             1 
    35 u_1_1_2      *              0             0             1 
    36 r_2_1_2      *              1             0             1 
    37 u_2_1_2      *              0             0             1 
    38 r_1_1_3      *              0             0             1 
    39 u_1_1_3      *              1             0             1 
    40 r_2_1_3      *              1             0             1 
    41 u_2_1_3      *              0             0             1 
    42 r_1_1_4      *              1             0             1 
    43 u_1_1_4      *              0             0             1 
    44 r_2_1_4      *              1             0             1 
    45 u_2_1_4      *              0             0             1 
    46 r_1_1_5      *              0             0             1 
    47 u_1_1_5      *              0             0             1 
    48 r_2_1_5      *              1             0             1 
    49 u_2_1_5      *              0             0             1 
    50 r_1_1_6      *              1             0             1 
    51 u_1_1_6      *              0             0             1 
    52 r_2_1_6      *              1             0             1 
    53 u_2_1_6      *              0             0             1 
    54 r_1_1_7      *              1             0             1 
    55 u_1_1_7      *              0             0             1 
    56 r_2_1_7      *              1             0             1 
    57 u_2_1_7      *              0             0             1 
    58 r_1_2_3      *              1             0             1 
    59 u_1_2_3      *              0             0             1 
    60 r_2_2_3      *              1             0             1 
    61 u_2_2_3      *              0             0             1 
    62 r_1_2_5      *              1             0             1 
    63 u_1_2_5      *              0             0             1 
    64 r_2_2_5      *              1             0             1 
    65 u_2_2_5      *              0             0             1 
    66 r_1_3_4      *              1             0             1 
    67 u_1_3_4      *              0             0             1 
    68 r_2_3_4      *              1             0             1 
    69 u_2_3_4      *              0             0             1 
    70 r_1_3_6      *              1             0             1 
    71 u_1_3_6      *              0             0             1 
    72 r_2_3_6      *              1             0             1 
    73 u_2_3_6      *              0             0             1 
    74 r_1_3_7      *              1             0             1 
    75 u_1_3_7      *              0             0             1 
    76 r_2_3_7      *              1             0             1 
    77 u_2_3_7      *              0             0             1 
    78 r_1_4_5      *              1             0             1 
    79 u_1_4_5      *              0             0             1 
    80 r_2_4_5      *              1             0             1 
    81 u_2_4_5      *              0             0             1 
    82 r_1_5_6      *              1             0             1 
    83 u_1_5_6      *              0             0             1 
    84 r_2_5_6      *              1             0             1 
    85 u_2_5_6      *              0             0             1 
    86 r_1_5_7      *              1             0             1 
    87 u_1_5_7      *              0             0             1 
    88 r_2_5_7      *              1             0             1 
    89 u_2_5_7      *              0             0             1 

Integer feasibility conditions:

KKT.PE: max.abs.err = 2.27e-13 on row 74
        max.rel.err = 5.66e-17 on row 74
        High quality

KKT.PB: max.abs.err = 1.14e-13 on row 79
        max.rel.err = 1.14e-16 on row 79
        High quality

End of output
